200
1000
266
263
263
261
259
259
258
258
255
255
254
252
248
248
247
246
245
243
241
236
236
234
234
233
230
230
229
229
228
227
225
224
223
221
220
220
218
217
216
216
215
215
214
213
213
212
211
210
210
209
209
209
207
206
205
202
202
201
201
201
200
199
195
194
191
190
189
188
186
179
178
178
178
178
177
176
174
173
171
168
168
166
166
166
164
162
161
161
160
158
156
155
153
153
152
150
150
149
149
149
146
144
141
140
138
138
138
137
135
134
132
130
128
125
119
119
118
117
112
111
111
110
109
107
106
105
102
102
99
99
98
97
96
95
93
92
91
90
89
88
85
84
84
84
83
83
83
82
79
78
77
75
74
74
73
73
62
62
61
58
56
55
55
54
54
52
50
49
47
43
42
42
42
41
40
39
38
34
34
33
32
29
29
28
27
26
26
25
24
24
23
23
21
21
20
17
17
17
16
16
